10
2 0 45
2 1 48
3 0 2
3 2 52
4 0 8
4 2 54
4 3 6
5 0 38
5 1 34
5 2 40
5 3 75
6 2 7
6 3 72
6 4 50
6 5 1
7 0 35
7 3 48
7 4 31
7 5 23
7 6 61
8 0 40
8 2 56
8 3 42
8 4 10
8 5 49
8 6 52
8 7 21
9 0 15
9 1 47
9 2 10
9 3 29
9 4 5
9 5 65
9 6 21
9 7 79
9 8 68
